0 0 0 0
0 1 1 0
0 2 0 0
0 3 1 0
0 4 0 6
0 5 1 8
0 6 1 8
0 7 2 9
0 8 0 9
0 9 0 10
0 10 0 13
0 11 2 9
0 12 0 10
0 13 1 9
0 14 0 6
0 15 0 11
0 16 0 13
0 17 0 15
0 18 0 13
0 19 1 14
0 20 0 17
0 21 2 19
0 22 2 15
0 23 0 19
0 24 0 20
0 25 2 20
0 26 0 18
0 27 0 19
0 28 0 28
0 29 0 26
0 30 2 14
0 31 0 30
